NAME : st68_L
TYPE : TSP
DIMENSION : 32
EDGE_WEIGHT_TYPE : EUC_2D
NODE_COORD_SECTION
2 80 39
3 69 23
4 72 42
6 58 43
7 81 34
8 79 17
9 30 23
14 64 8
17 40 35
18 68 40
19 92 34
20 62 1
21 28 43
25 6 8
26 87 18
27 30 9
28 77 13
30 55 3
32 73 28
39 8 19
40 20 18
41 54 38
42 63 36
43 44 33
44 52 18
45 12 13
46 25 5
49 90 9
55 98 7
61 17 22
62 5 45
68 48 19
EOF
